Maximize
F - f1 - f2

Subject to
F - 2y174 - 8y162 - 4y151 - 8y270 - 8y23 - 2y161 - 8y237 - 2y105 - 4y312 - 8y77 - 8y119 - 2y2 - 8y169 - 8y211 - 8y6 - 2y96 - 6y239 - 4y300 = 0
f1 - 0.006259s174 - 0.006259s162 - 0.006259s151 - 0.006259s270 - 0.006259s23 - 0.006259s161 - 0.006259s237 - 0.006259s105 - 0.006259s312 - 0.006259s77 - 0.006259s119 - 0.006259s2 - 0.006259s169 - 0.006259s211 - 0.006259s6 - 0.006259s96 - 0.006259s239 - 0.006259s300  = 0
f2 - 2.26y174 - 0.44y162 - 0.13y151 - 0.05y270 - 0.03y23 - 0.45y161 - 0.10y237 - 0.08y105 - 0.25y312 - 0.08y77 - 0.08y119 - 0.23y2 - 0.20y169 - 0.25y211 - 0.10y6 - 0.25y96 - 0.33y239 - 0.34y300 = 0

x329x162x1 + x329x151x1 + x329x237x1 + x329x312x1 + x329x77x1 + x329x2x1 + x329x169x1 + x329x6x1 + x329x96x1 + x329x239x1 
<= 1
x171x174x1 + x171x162x1 + x171x151x1 + x171x237x1 + x171x312x1 + x171x77x1 + x171x2x1 + x171x169x1 + x171x6x1 + x171x96x1 + x171x239x1 
<= 1
x166x312x1 + x166x77x1 + x166x2x1 + x166x169x1 + x166x6x1 + x166x96x1 + x166x239x1 
<= 2
x30x162x1 + x30x151x1 + x30x237x1 + x30x312x1 + x30x77x1 + x30x2x1 + x30x169x1 + x30x6x1 + x30x96x1 + x30x239x1 
<= 2
x263x174x1 + x263x162x1 + x263x151x1 + x263x237x1 + x263x312x1 + x263x77x1 + x263x2x1 + x263x169x1 + x263x6x1 + x263x96x1 + x263x239x1 
<= 2
x86x174x1 + x86x162x1 + x86x151x1 + x86x237x1 + x86x312x1 + x86x77x1 + x86x2x1 + x86x169x1 + x86x6x1 + x86x96x1 + x86x239x1 
<= 1
x329x162x2 + x329x270x2 + x329x23x2 + x329x161x2 + x329x105x2 + x329x119x2 + x329x169x2 + x329x211x2 + x329x300x2 
<= 1
x171x162x2 + x171x270x2 + x171x23x2 + x171x161x2 + x171x105x2 + x171x119x2 + x171x169x2 + x171x211x2 + x171x300x2 
<= 1
x256x162x2 + x256x270x2 + x256x23x2 + x256x161x2 + x256x105x2 + x256x119x2 + x256x169x2 + x256x211x2 + x256x300x2 
<= 1
x204x162x2 + x204x270x2 + x204x23x2 + x204x161x2 + x204x105x2 + x204x119x2 + x204x169x2 + x204x211x2 + x204x300x2 
<= 1
x146x162x2 + x146x270x2 + x146x23x2 + x146x161x2 + x146x105x2 + x146x119x2 + x146x169x2 + x146x211x2 + x146x300x2 
<= 1
x73x162x2 + x73x270x2 + x73x23x2 + x73x161x2 + x73x105x2 + x73x119x2 + x73x169x2 + x73x211x2 + x73x300x2 
<= 1
x285x162x2 + x285x270x2 + x285x23x2 + x285x161x2 + x285x105x2 + x285x119x2 + x285x169x2 + x285x211x2 + x285x300x2 
<= 1
x200x162x2 + x200x270x2 + x200x23x2 + x200x161x2 + x200x105x2 + x200x119x2 + x200x169x2 + x200x211x2 + x200x300x2 
<= 1
x251x162x2 + x251x270x2 + x251x23x2 + x251x161x2 + x251x105x2 + x251x119x2 + x251x169x2 + x251x211x2 + x251x300x2 
<= 1

x24x270x3 + x24x161x3 + x24x312x3 + x24x77x3 + x24x119x3 + x24x2x3 + x24x211x3 + x24x6x3 
<= 2
x201x270x3 + x201x161x3 + x201x312x3 + x201x77x3 + x201x119x3 + x201x2x3 + x201x211x3 + x201x6x3 
<= 2
x256x270x3 + x256x161x3 + x256x312x3 + x256x77x3 + x256x119x3 + x256x2x3 + x256x211x3 + x256x6x3 
<= 1
x204x270x3 + x204x161x3 + x204x312x3 + x204x77x3 + x204x119x3 + x204x2x3 + x204x211x3 + x204x6x3 
<= 1
x86x270x3 + x86x161x3 + x86x312x3 + x86x77x3 + x86x119x3 + x86x2x3 + x86x211x3 + x86x6x3 
<= 1
x124x270x3 + x124x161x3 + x124x312x3 + x124x77x3 + x124x119x3 + x124x2x3 + x124x211x3 + x124x6x3 
<= 2
x171x174x1 + x263x174x1 + x86x174x1 
- x174x0x1
- x174x162x1 - x174x151x1 - x174x237x1 - x174x312x1 - x174x77x1 - x174x2x1 - x174x169x1 - x174x6x1 - x174x96x1 - x174x239x1 
= 0



x329x162x1 + x171x162x1 + x30x162x1 + x263x162x1 + x86x162x1 + x174x162x1 
- x162x0x1
- x162x151x1 - x162x237x1 - x162x312x1 - x162x77x1 - x162x2x1 - x162x169x1 - x162x6x1 - x162x96x1 - x162x239x1 
= 0
x329x162x2 + x171x162x2 + x256x162x2 + x204x162x2 + x146x162x2 + x73x162x2 + x285x162x2 + x200x162x2 + x251x162x2 
- x162x0x2
- x162x270x2 - x162x23x2 - x162x161x2 - x162x105x2 - x162x119x2 - x162x169x2 - x162x211x2 - x162x300x2 
= 0


x329x151x1 + x171x151x1 + x30x151x1 + x263x151x1 + x86x151x1 + x174x151x1 + x162x151x1 
- x151x0x1
- x151x77x1 - x151x2x1 - x151x169x1 - x151x6x1 - x151x96x1 - x151x239x1 
= 0




x329x270x2 + x171x270x2 + x256x270x2 + x204x270x2 + x146x270x2 + x73x270x2 + x285x270x2 + x200x270x2 + x251x270x2 + x162x270x2 
- x270x0x2
- x270x23x2 - x270x105x2 - x270x119x2 - x270x169x2 - x270x211x2 - x270x300x2 
= 0
x24x270x3 + x201x270x3 + x256x270x3 + x204x270x3 + x86x270x3 + x124x270x3 
- x270x0x3
- x270x77x3 - x270x119x3 - x270x2x3 - x270x211x3 - x270x6x3 
= 0


x329x23x2 + x171x23x2 + x256x23x2 + x204x23x2 + x146x23x2 + x73x23x2 + x285x23x2 + x200x23x2 + x251x23x2 + x162x23x2 + x270x23x2 
- x23x0x2
- x23x119x2 - x23x169x2 - x23x211x2 - x23x300x2 
= 0



x329x161x2 + x171x161x2 + x256x161x2 + x204x161x2 + x146x161x2 + x73x161x2 + x285x161x2 + x200x161x2 + x251x161x2 + x162x161x2 
- x161x0x2
- x161x119x2 - x161x169x2 - x161x211x2 
= 0
x24x161x3 + x201x161x3 + x256x161x3 + x204x161x3 + x86x161x3 + x124x161x3 
- x161x0x3
- x161x119x3 - x161x211x3 - x161x6x3 
= 0

x329x237x1 + x171x237x1 + x30x237x1 + x263x237x1 + x86x237x1 + x174x237x1 + x162x237x1 
- x237x0x1
- x237x2x1 - x237x6x1 - x237x96x1 - x237x239x1 
= 0




x329x105x2 + x171x105x2 + x256x105x2 + x204x105x2 + x146x105x2 + x73x105x2 + x285x105x2 + x200x105x2 + x251x105x2 + x162x105x2 + x270x105x2 
- x105x0x2
- x105x119x2 - x105x169x2 - x105x211x2 - x105x300x2 
= 0


x329x312x1 + x171x312x1 + x166x312x1 + x30x312x1 + x263x312x1 + x86x312x1 + x174x312x1 + x162x312x1 
- x312x0x1
- x312x77x1 - x312x169x1 - x312x6x1 - x312x96x1 - x312x239x1 
= 0

x24x312x3 + x201x312x3 + x256x312x3 + x204x312x3 + x86x312x3 + x124x312x3 
- x312x0x3
- x312x77x3 - x312x119x3 - x312x211x3 - x312x6x3 
= 0

x329x77x1 + x171x77x1 + x166x77x1 + x30x77x1 + x263x77x1 + x86x77x1 + x174x77x1 + x162x77x1 + x151x77x1 + x312x77x1 
- x77x0x1
- x77x6x1 - x77x96x1 - x77x239x1 
= 0

x24x77x3 + x201x77x3 + x256x77x3 + x204x77x3 + x86x77x3 + x124x77x3 + x270x77x3 + x312x77x3 
- x77x0x3
- x77x119x3 - x77x211x3 - x77x6x3 
= 0


x329x119x2 + x171x119x2 + x256x119x2 + x204x119x2 + x146x119x2 + x73x119x2 + x285x119x2 + x200x119x2 + x251x119x2 + x162x119x2 + x270x119x2 + x23x119x2 + x161x119x2 + x105x119x2 
- x119x0x2
- x119x211x2 
= 0
x24x119x3 + x201x119x3 + x256x119x3 + x204x119x3 + x86x119x3 + x124x119x3 + x270x119x3 + x161x119x3 + x312x119x3 + x77x119x3 
- x119x0x3
- x119x211x3 - x119x6x3 
= 0

x329x2x1 + x171x2x1 + x166x2x1 + x30x2x1 + x263x2x1 + x86x2x1 + x174x2x1 + x162x2x1 + x151x2x1 + x237x2x1 
- x2x0x1
- x2x239x1 
= 0

x24x2x3 + x201x2x3 + x256x2x3 + x204x2x3 + x86x2x3 + x124x2x3 + x270x2x3 
- x2x0x3

= 0

x329x169x1 + x171x169x1 + x166x169x1 + x30x169x1 + x263x169x1 + x86x169x1 + x174x169x1 + x162x169x1 + x151x169x1 + x312x169x1 
- x169x0x1
- x169x6x1 
= 0
x329x169x2 + x171x169x2 + x256x169x2 + x204x169x2 + x146x169x2 + x73x169x2 + x285x169x2 + x200x169x2 + x251x169x2 + x162x169x2 + x270x169x2 + x23x169x2 + x161x169x2 + x105x169x2 
- x169x0x2

= 0



x329x211x2 + x171x211x2 + x256x211x2 + x204x211x2 + x146x211x2 + x73x211x2 + x285x211x2 + x200x211x2 + x251x211x2 + x162x211x2 + x270x211x2 + x23x211x2 + x161x211x2 + x105x211x2 + x119x211x2 
- x211x0x2

= 0
x24x211x3 + x201x211x3 + x256x211x3 + x204x211x3 + x86x211x3 + x124x211x3 + x270x211x3 + x161x211x3 + x312x211x3 + x77x211x3 + x119x211x3 
- x211x0x3

= 0

x329x6x1 + x171x6x1 + x166x6x1 + x30x6x1 + x263x6x1 + x86x6x1 + x174x6x1 + x162x6x1 + x151x6x1 + x237x6x1 + x312x6x1 + x77x6x1 + x169x6x1 
- x6x0x1

= 0

x24x6x3 + x201x6x3 + x256x6x3 + x204x6x3 + x86x6x3 + x124x6x3 + x270x6x3 + x161x6x3 + x312x6x3 + x77x6x3 + x119x6x3 
- x6x0x3

= 0

x329x96x1 + x171x96x1 + x166x96x1 + x30x96x1 + x263x96x1 + x86x96x1 + x174x96x1 + x162x96x1 + x151x96x1 + x237x96x1 + x312x96x1 + x77x96x1 
- x96x0x1

= 0



x329x239x1 + x171x239x1 + x166x239x1 + x30x239x1 + x263x239x1 + x86x239x1 + x174x239x1 + x162x239x1 + x151x239x1 + x237x239x1 + x312x239x1 + x77x239x1 + x2x239x1 
- x239x0x1

= 0




x329x300x2 + x171x300x2 + x256x300x2 + x204x300x2 + x146x300x2 + x73x300x2 + x285x300x2 + x200x300x2 + x251x300x2 + x162x300x2 + x270x300x2 + x23x300x2 + x105x300x2 
- x300x0x2

= 0


2y174 - x171x174x1 - x263x174x1 - x86x174x1 = 0
1y162 - x329x162x1 - x171x162x1 - x30x162x1 - x263x162x1 - x86x162x1 - x174x162x1 = 0
1y162 - x329x162x2 - x171x162x2 - x256x162x2 - x204x162x2 - x146x162x2 - x73x162x2 - x285x162x2 - x200x162x2 - x251x162x2 = 0
2y151 - x329x151x1 - x171x151x1 - x30x151x1 - x263x151x1 - x86x151x1 - x174x151x1 - x162x151x1 = 0
1y270 - x329x270x2 - x171x270x2 - x256x270x2 - x204x270x2 - x146x270x2 - x73x270x2 - x285x270x2 - x200x270x2 - x251x270x2 - x162x270x2 = 0
1y270 - x24x270x3 - x201x270x3 - x256x270x3 - x204x270x3 - x86x270x3 - x124x270x3 = 0
2y23 - x329x23x2 - x171x23x2 - x256x23x2 - x204x23x2 - x146x23x2 - x73x23x2 - x285x23x2 - x200x23x2 - x251x23x2 - x162x23x2 - x270x23x2 = 0
1y161 - x329x161x2 - x171x161x2 - x256x161x2 - x204x161x2 - x146x161x2 - x73x161x2 - x285x161x2 - x200x161x2 - x251x161x2 - x162x161x2 = 0
1y161 - x24x161x3 - x201x161x3 - x256x161x3 - x204x161x3 - x86x161x3 - x124x161x3 = 0
2y237 - x329x237x1 - x171x237x1 - x30x237x1 - x263x237x1 - x86x237x1 - x174x237x1 - x162x237x1 = 0
2y105 - x329x105x2 - x171x105x2 - x256x105x2 - x204x105x2 - x146x105x2 - x73x105x2 - x285x105x2 - x200x105x2 - x251x105x2 - x162x105x2 - x270x105x2 = 0
1y312 - x329x312x1 - x171x312x1 - x166x312x1 - x30x312x1 - x263x312x1 - x86x312x1 - x174x312x1 - x162x312x1 = 0
1y312 - x24x312x3 - x201x312x3 - x256x312x3 - x204x312x3 - x86x312x3 - x124x312x3 = 0
1y77 - x329x77x1 - x171x77x1 - x166x77x1 - x30x77x1 - x263x77x1 - x86x77x1 - x174x77x1 - x162x77x1 - x151x77x1 - x312x77x1 = 0
1y77 - x24x77x3 - x201x77x3 - x256x77x3 - x204x77x3 - x86x77x3 - x124x77x3 - x270x77x3 - x312x77x3 = 0
1y119 - x329x119x2 - x171x119x2 - x256x119x2 - x204x119x2 - x146x119x2 - x73x119x2 - x285x119x2 - x200x119x2 - x251x119x2 - x162x119x2 - x270x119x2 - x23x119x2 - x161x119x2 - x105x119x2 = 0
1y119 - x24x119x3 - x201x119x3 - x256x119x3 - x204x119x3 - x86x119x3 - x124x119x3 - x270x119x3 - x161x119x3 - x312x119x3 - x77x119x3 = 0
1y2 - x329x2x1 - x171x2x1 - x166x2x1 - x30x2x1 - x263x2x1 - x86x2x1 - x174x2x1 - x162x2x1 - x151x2x1 - x237x2x1 = 0
1y2 - x24x2x3 - x201x2x3 - x256x2x3 - x204x2x3 - x86x2x3 - x124x2x3 - x270x2x3 = 0
1y169 - x329x169x1 - x171x169x1 - x166x169x1 - x30x169x1 - x263x169x1 - x86x169x1 - x174x169x1 - x162x169x1 - x151x169x1 - x312x169x1 = 0
1y169 - x329x169x2 - x171x169x2 - x256x169x2 - x204x169x2 - x146x169x2 - x73x169x2 - x285x169x2 - x200x169x2 - x251x169x2 - x162x169x2 - x270x169x2 - x23x169x2 - x161x169x2 - x105x169x2 = 0
1y211 - x329x211x2 - x171x211x2 - x256x211x2 - x204x211x2 - x146x211x2 - x73x211x2 - x285x211x2 - x200x211x2 - x251x211x2 - x162x211x2 - x270x211x2 - x23x211x2 - x161x211x2 - x105x211x2 - x119x211x2 = 0
1y211 - x24x211x3 - x201x211x3 - x256x211x3 - x204x211x3 - x86x211x3 - x124x211x3 - x270x211x3 - x161x211x3 - x312x211x3 - x77x211x3 - x119x211x3 = 0
1y6 - x329x6x1 - x171x6x1 - x166x6x1 - x30x6x1 - x263x6x1 - x86x6x1 - x174x6x1 - x162x6x1 - x151x6x1 - x237x6x1 - x312x6x1 - x77x6x1 - x169x6x1 = 0
1y6 - x24x6x3 - x201x6x3 - x256x6x3 - x204x6x3 - x86x6x3 - x124x6x3 - x270x6x3 - x161x6x3 - x312x6x3 - x77x6x3 - x119x6x3 = 0
2y96 - x329x96x1 - x171x96x1 - x166x96x1 - x30x96x1 - x263x96x1 - x86x96x1 - x174x96x1 - x162x96x1 - x151x96x1 - x237x96x1 - x312x96x1 - x77x96x1 = 0
2y239 - x329x239x1 - x171x239x1 - x166x239x1 - x30x239x1 - x263x239x1 - x86x239x1 - x174x239x1 - x162x239x1 - x151x239x1 - x237x239x1 - x312x239x1 - x77x239x1 - x2x239x1 = 0
2y300 - x329x300x2 - x171x300x2 - x256x300x2 - x204x300x2 - x146x300x2 - x73x300x2 - x285x300x2 - x200x300x2 - x251x300x2 - x162x300x2 - x270x300x2 - x23x300x2 - x105x300x2 = 0

s24 - s270 + 8.003967z24z270z3 <= 6.23
s24 - s161 + 7.997156z24z161z3 <= 6.23
s24 - s312 + 8.013449z24z312z3 <= 6.23
s24 - s77 + 8.031605z24z77z3 <= 6.23
s24 - s119 + 8.038620z24z119z3 <= 6.23
s24 - s2 + 8.000771z24z2z3 <= 6.23
s24 - s211 + 8.051039z24z211z3 <= 6.23
s24 - s6 + 8.060518z24z6z3 <= 6.23
s201 - s270 + 8.041283z201z270z3 <= 6.27
s201 - s161 + 8.031221z201z161z3 <= 6.27
s201 - s312 + 8.048716z201z312z3 <= 6.27
s201 - s77 + 8.067802z201z77z3 <= 6.27
s201 - s119 + 8.074606z201z119z3 <= 6.27
s201 - s2 + 8.040852z201z2z3 <= 6.27
s201 - s211 + 8.089424z201z211z3 <= 6.27
s201 - s6 + 8.095675z201z6z3 <= 6.27
s329 - s162 + 7.938196z329z162z1 <= 6.23
s329 - s162 + 7.938196z329z162z2 <= 6.23
s329 - s151 + 7.996911z329z151z1 <= 6.23
s329 - s270 + 7.996303z329z270z2 <= 6.23
s329 - s23 + 8.002968z329z23z2 <= 6.23
s329 - s161 + 7.990367z329z161z2 <= 6.23
s329 - s237 + 7.983914z329z237z1 <= 6.23
s329 - s105 + 8.010232z329z105z2 <= 6.23
s329 - s312 + 8.006323z329z312z1 <= 6.23
s329 - s77 + 8.024224z329z77z1 <= 6.23
s329 - s119 + 8.031296z329z119z2 <= 6.23
s329 - s2 + 7.992438z329z2z1 <= 6.23
s329 - s169 + 8.026876z329z169z1 <= 6.23
s329 - s169 + 8.026876z329z169z2 <= 6.23
s329 - s211 + 8.043099z329z211z2 <= 6.23
s329 - s6 + 8.053413z329z6z1 <= 6.23
s329 - s96 + 8.049628z329z96z1 <= 6.23
s329 - s239 + 8.019007z329z239z1 <= 6.23
s329 - s300 + 8.001070z329z300z2 <= 6.23
s171 - s174 + 7.475248z171z174z1 <= 6.44
s171 - s162 + 7.843915z171z162z1 <= 6.44
s171 - s162 + 7.843915z171z162z2 <= 6.44
s171 - s151 + 7.905369z171z151z1 <= 6.44
s171 - s270 + 7.907780z171z270z2 <= 6.44
s171 - s23 + 7.914380z171z23z2 <= 6.44
s171 - s161 + 7.890492z171z161z2 <= 6.44
s171 - s237 + 7.905322z171z237z1 <= 6.44
s171 - s105 + 7.918638z171z105z2 <= 6.44
s171 - s312 + 7.909756z171z312z1 <= 6.44
s171 - s77 + 7.930833z171z77z1 <= 6.44
s171 - s119 + 7.937086z171z119z2 <= 6.44
s171 - s2 + 7.919191z171z2z1 <= 6.44
s171 - s169 + 7.929708z171z169z1 <= 6.44
s171 - s169 + 7.929708z171z169z2 <= 6.44
s171 - s211 + 7.959358z171z211z2 <= 6.44
s171 - s6 + 7.956375z171z6z1 <= 6.44
s171 - s96 + 7.964685z171z96z1 <= 6.44
s171 - s239 + 7.944662z171z239z1 <= 6.44
s171 - s300 + 7.931911z171z300z2 <= 6.44
s256 - s162 + 8.310319z256z162z2 <= 6.92
s256 - s270 + 8.372658z256z270z2 <= 6.92
s256 - s270 + 8.372658z256z270z3 <= 6.92
s256 - s23 + 8.379290z256z23z2 <= 6.92
s256 - s161 + 8.359397z256z161z2 <= 6.92
s256 - s161 + 8.359397z256z161z3 <= 6.92
s256 - s105 + 8.384356z256z105z2 <= 6.92
s256 - s312 + 8.377122z256z312z3 <= 6.92
s256 - s77 + 8.397114z256z77z3 <= 6.92
s256 - s119 + 8.403641z256z119z2 <= 6.92
s256 - s119 + 8.403641z256z119z3 <= 6.92
s256 - s2 + 8.381208z256z2z3 <= 6.92
s256 - s169 + 8.397346z256z169z2 <= 6.92
s256 - s211 + 8.423288z256z211z2 <= 6.92
s256 - s211 + 8.423288z256z211z3 <= 6.92
s256 - s6 + 8.423990z256z6z3 <= 6.92
s256 - s300 + 8.393397z256z300z2 <= 6.92
s166 - s312 + 8.902875z166z312z1 <= 7.44
s166 - s77 + 8.925028z166z77z1 <= 7.44
s166 - s2 + 8.918447z166z2z1 <= 7.44
s166 - s169 + 8.922524z166z169z1 <= 7.44
s166 - s6 + 8.949170z166z6z1 <= 7.44
s166 - s96 + 8.961143z166z96z1 <= 7.44
s166 - s239 + 8.943560z166z239z1 <= 7.44
s30 - s162 + 8.265975z30z162z1 <= 6.87
s30 - s151 + 8.327900z30z151z1 <= 6.87
s30 - s237 + 8.330372z30z237z1 <= 6.87
s30 - s312 + 8.331048z30z312z1 <= 6.87
s30 - s77 + 8.352877z30z77z1 <= 6.87
s30 - s2 + 8.345072z30z2z1 <= 6.87
s30 - s169 + 8.350799z30z169z1 <= 6.87
s30 - s6 + 8.377455z30z6z1 <= 6.87
s30 - s96 + 8.388386z30z96z1 <= 6.87
s30 - s239 + 8.370257z30z239z1 <= 6.87
s204 - s162 + 8.321106z204z162z2 <= 6.91
s204 - s270 + 8.387712z204z270z2 <= 6.91
s204 - s270 + 8.387712z204z270z3 <= 6.91
s204 - s23 + 8.394215z204z23z2 <= 6.91
s204 - s161 + 8.362540z204z161z2 <= 6.91
s204 - s161 + 8.362540z204z161z3 <= 6.91
s204 - s105 + 8.396772z204z105z2 <= 6.91
s204 - s312 + 8.384639z204z312z3 <= 6.91
s204 - s77 + 8.407764z204z77z3 <= 6.91
s204 - s119 + 8.413436z204z119z2 <= 6.91
s204 - s119 + 8.413436z204z119z3 <= 6.91
s204 - s2 + 8.405442z204z2z3 <= 6.91
s204 - s169 + 8.403963z204z169z2 <= 6.91
s204 - s211 + 8.441092z204z211z2 <= 6.91
s204 - s211 + 8.441092z204z211z3 <= 6.91
s204 - s6 + 8.430547z204z6z3 <= 6.91
s204 - s300 + 8.419392z204z300z2 <= 6.91
s146 - s162 + 7.313646z146z162z2 <= 5.27
s146 - s270 + 7.375313z146z270z2 <= 5.27
s146 - s23 + 7.381968z146z23z2 <= 5.27
s146 - s161 + 7.360299z146z161z2 <= 5.27
s146 - s105 + 7.387612z146z105z2 <= 5.27
s146 - s119 + 7.406952z146z119z2 <= 5.27
s146 - s169 + 7.399973z146z169z2 <= 5.27
s146 - s211 + 7.424301z146z211z2 <= 5.27
s146 - s300 + 7.385787z146z300z2 <= 5.27
s73 - s162 + 7.320836z73z162z2 <= 5.31
s73 - s270 + 7.383483z73z270z2 <= 5.31
s73 - s23 + 7.390125z73z23z2 <= 5.31
s73 - s161 + 7.366100z73z161z2 <= 5.31
s73 - s105 + 7.395238z73z105z2 <= 5.31
s73 - s119 + 7.414051z73z119z2 <= 5.31
s73 - s169 + 7.406423z73z169z2 <= 5.31
s73 - s211 + 7.433240z73z211z2 <= 5.31
s73 - s300 + 7.396706z73z300z2 <= 5.31
s285 - s162 + 6.944209z285z162z2 <= 5.20
s285 - s270 + 6.991144z285z270z2 <= 5.20
s285 - s23 + 6.997623z285z23z2 <= 5.20
s285 - s161 + 7.005766z285z161z2 <= 5.20
s285 - s105 + 7.008994z285z105z2 <= 5.20
s285 - s119 + 7.033571z285z119z2 <= 5.20
s285 - s169 + 7.034880z285z169z2 <= 5.20
s285 - s211 + 7.029740z285z211z2 <= 5.20
s285 - s300 + 6.973629z285z300z2 <= 5.20
s263 - s174 + 6.801652z263z174z1 <= 5.43
s263 - s162 + 7.164567z263z162z1 <= 5.43
s263 - s151 + 7.223531z263z151z1 <= 5.43
s263 - s237 + 7.211144z263z237z1 <= 5.43
s263 - s312 + 7.232523z263z312z1 <= 5.43
s263 - s77 + 7.250725z263z77z1 <= 5.43
s263 - s2 + 7.219828z263z2z1 <= 5.43
s263 - s169 + 7.253023z263z169z1 <= 5.43
s263 - s6 + 7.279587z263z6z1 <= 5.43
s263 - s96 + 7.276653z263z96z1 <= 5.43
s263 - s239 + 7.246383z263z239z1 <= 5.43
s86 - s174 + 6.791881z86z174z1 <= 5.45
s86 - s162 + 7.150806z86z162z1 <= 5.45
s86 - s151 + 7.209291z86z151z1 <= 5.45
s86 - s270 + 7.208503z86z270z3 <= 5.45
s86 - s161 + 7.203459z86z161z3 <= 5.45
s86 - s237 + 7.195650z86z237z1 <= 5.45
s86 - s312 + 7.219069z86z312z1 <= 5.45
s86 - s312 + 7.219069z86z312z3 <= 5.45
s86 - s77 + 7.236712z86z77z1 <= 5.45
s86 - s77 + 7.236712z86z77z3 <= 5.45
s86 - s119 + 7.243839z86z119z3 <= 5.45
s86 - s2 + 7.203959z86z2z1 <= 5.45
s86 - s2 + 7.203959z86z2z3 <= 5.45
s86 - s169 + 7.239666z86z169z1 <= 5.45
s86 - s211 + 7.255016z86z211z3 <= 5.45
s86 - s6 + 7.266178z86z6z1 <= 5.45
s86 - s6 + 7.266178z86z6z3 <= 5.45
s86 - s96 + 7.261600z86z96z1 <= 5.45
s86 - s239 + 7.230544z86z239z1 <= 5.45
s200 - s162 + 7.575419z200z162z2 <= 5.93
s200 - s270 + 7.594375z200z270z2 <= 5.93
s200 - s23 + 7.599639z200z23z2 <= 5.93
s200 - s161 + 7.646076z200z161z2 <= 5.93
s200 - s105 + 7.617240z200z105z2 <= 5.93
s200 - s119 + 7.645358z200z119z2 <= 5.93
s200 - s169 + 7.657351z200z169z2 <= 5.93
s200 - s211 + 7.612833z200z211z2 <= 5.93
s200 - s300 + 7.537932z200z300z2 <= 5.93
s124 - s270 + 7.621542z124z270z3 <= 5.90
s124 - s161 + 7.673161z124z161z3 <= 5.90
s124 - s312 + 7.665129z124z312z3 <= 5.90
s124 - s77 + 7.663180z124z77z3 <= 5.90
s124 - s119 + 7.672557z124z119z3 <= 5.90
s124 - s2 + 7.569361z124z2z3 <= 5.90
s124 - s211 + 7.639609z124z211z3 <= 5.90
s124 - s6 + 7.704929z124z6z3 <= 5.90
s251 - s162 + 6.706257z251z162z2 <= 4.74
s251 - s270 + 6.727667z251z270z2 <= 4.74
s251 - s23 + 6.732998z251z23z2 <= 4.74
s251 - s161 + 6.776523z251z161z2 <= 4.74
s251 - s105 + 6.750386z251z105z2 <= 4.74
s251 - s119 + 6.778434z251z119z2 <= 4.74
s251 - s169 + 6.789761z251z169z2 <= 4.74
s251 - s211 + 6.746344z251z211z2 <= 4.74
s251 - s300 + 6.670889z251z300z2 <= 4.74
s174 - s162 + 8.906239z174z162z1 <= 7.53
s174 - s151 + 8.968431z174z151z1 <= 7.53
s174 - s237 + 8.972719z174z237z1 <= 7.53
s174 - s312 + 8.970808z174z312z1 <= 7.53
s174 - s77 + 8.993082z174z77z1 <= 7.53
s174 - s2 + 8.988064z174z2z1 <= 7.53
s174 - s169 + 8.990435z174z169z1 <= 7.53
s174 - s6 + 9.017077z174z6z1 <= 7.53
s174 - s96 + 9.029689z174z96z1 <= 7.53
s174 - s239 + 9.013000z174z239z1 <= 7.53
s162 - s151 + 9.743246z162z151z1 <= 8.68
s162 - s270 + 9.752111z162z270z2 <= 8.68
s162 - s23 + 9.757747z162z23z2 <= 8.68
s162 - s161 + 9.750868z162z161z2 <= 8.68
s162 - s237 + 9.784350z162z237z1 <= 8.68
s162 - s105 + 9.756012z162z105z2 <= 8.68
s162 - s312 + 9.749602z162z312z1 <= 8.68
s162 - s77 + 9.766923z162z77z1 <= 8.68
s162 - s119 + 9.773334z162z119z2 <= 8.68
s162 - s2 + 9.811318z162z2z1 <= 8.68
s162 - s169 + 9.770677z162z169z1 <= 8.68
s162 - s169 + 9.770677z162z169z2 <= 8.68
s162 - s211 + 9.809443z162z211z2 <= 8.68
s162 - s6 + 9.796429z162z6z1 <= 8.68
s162 - s96 + 9.811487z162z96z1 <= 8.68
s162 - s239 + 9.824223z162z239z1 <= 8.68
s162 - s300 + 9.832315z162z300z2 <= 8.68
s151 - s77 + 9.899815z151z77z1 <= 8.87
s151 - s2 + 9.970222z151z2z1 <= 8.87
s151 - s169 + 9.923748z151z169z1 <= 8.87
s151 - s6 + 9.940867z151z6z1 <= 8.87
s151 - s96 + 9.940867z151z96z1 <= 8.87
s151 - s239 + 9.971980z151z239z1 <= 8.87
s270 - s23 + 9.886667z270z23z2 <= 8.88
s270 - s105 + 9.904037z270z105z2 <= 8.88
s270 - s77 + 9.922688z270z77z3 <= 8.88
s270 - s119 + 9.932069z270z119z2 <= 8.88
s270 - s119 + 9.932069z270z119z3 <= 8.88
s270 - s2 + 9.960278z270z2z3 <= 8.88
s270 - s169 + 9.951802z270z169z2 <= 8.88
s270 - s211 + 9.937349z270z211z2 <= 8.88
s270 - s211 + 9.937349z270z211z3 <= 8.88
s270 - s6 + 9.965375z270z6z3 <= 8.88
s270 - s300 + 9.980000z270z300z2 <= 8.88
s23 - s119 + 9.948073z23z119z2 <= 8.90
s23 - s169 + 9.969602z23z169z2 <= 8.90
s23 - s211 + 9.952068z23z211z2 <= 8.90
s23 - s300 + 10.000221z23z300z2 <= 8.90
s161 - s119 + 9.970867z161z119z2 <= 8.90
s161 - s119 + 9.970867z161z119z3 <= 8.90
s161 - s169 + 9.948073z161z169z2 <= 8.90
s161 - s211 + 10.040158z161z211z2 <= 8.90
s161 - s211 + 10.040158z161z211z3 <= 8.90
s161 - s6 + 9.971802z161z6z3 <= 8.90
s237 - s2 + 9.927487z237z2z1 <= 8.90
s237 - s6 + 10.037274z237z6z1 <= 8.90
s237 - s96 + 9.971802z237z96z1 <= 8.90
s237 - s239 + 9.942687z237z239z1 <= 8.90
s105 - s119 + 9.938284z105z119z2 <= 8.91
s105 - s169 + 9.958534z105z169z2 <= 8.91
s105 - s211 + 9.972893z105z211z2 <= 8.91
s105 - s300 + 10.030739z105z300z2 <= 8.91
s312 - s77 + 9.943333z312z77z1 <= 8.91
s312 - s77 + 9.943333z312z77z3 <= 8.91
s312 - s119 + 9.943333z312z119z3 <= 8.91
s312 - s169 + 9.931082z312z169z1 <= 8.91
s312 - s211 + 10.011543z312z211z3 <= 8.91
s312 - s6 + 9.957140z312z6z1 <= 8.91
s312 - s6 + 9.957140z312z6z3 <= 8.91
s312 - s96 + 10.008432z312z96z1 <= 8.91
s312 - s239 + 10.050633z312z239z1 <= 8.91
s77 - s119 + 9.969428z77z119z3 <= 8.96
s77 - s211 + 10.029602z77z211z3 <= 8.96
s77 - s6 + 10.002687z77z6z1 <= 8.96
s77 - s6 + 10.002687z77z6z3 <= 8.96
s77 - s96 + 10.025660z77z96z1 <= 8.96
s77 - s239 + 10.073529z77z239z1 <= 8.96
s119 - s211 + 10.054535z119z211z2 <= 8.98
s119 - s211 + 10.054535z119z211z3 <= 8.98
s119 - s6 + 10.013332z119z6z3 <= 8.98
s2 - s239 + 10.016666z2z239z1 <= 8.99
s169 - s6 + 10.016666z169z6z1 <= 8.99

x24x270x3 - 1z24z270z3 <= 0
x24x161x3 - 1z24z161z3 <= 0
x24x312x3 - 1z24z312z3 <= 0
x24x77x3 - 1z24z77z3 <= 0
x24x119x3 - 1z24z119z3 <= 0
x24x2x3 - 1z24z2z3 <= 0
x24x211x3 - 1z24z211z3 <= 0
x24x6x3 - 1z24z6z3 <= 0
x201x270x3 - 1z201z270z3 <= 0
x201x161x3 - 1z201z161z3 <= 0
x201x312x3 - 1z201z312z3 <= 0
x201x77x3 - 1z201z77z3 <= 0
x201x119x3 - 1z201z119z3 <= 0
x201x2x3 - 1z201z2z3 <= 0
x201x211x3 - 1z201z211z3 <= 0
x201x6x3 - 1z201z6z3 <= 0
x329x162x1 - 1z329z162z1 <= 0
x329x162x2 - 1z329z162z2 <= 0
x329x151x1 - 2z329z151z1 <= 0
x329x270x2 - 1z329z270z2 <= 0
x329x23x2 - 2z329z23z2 <= 0
x329x161x2 - 1z329z161z2 <= 0
x329x237x1 - 2z329z237z1 <= 0
x329x105x2 - 2z329z105z2 <= 0
x329x312x1 - 1z329z312z1 <= 0
x329x77x1 - 1z329z77z1 <= 0
x329x119x2 - 1z329z119z2 <= 0
x329x2x1 - 1z329z2z1 <= 0
x329x169x1 - 1z329z169z1 <= 0
x329x169x2 - 1z329z169z2 <= 0
x329x211x2 - 1z329z211z2 <= 0
x329x6x1 - 1z329z6z1 <= 0
x329x96x1 - 2z329z96z1 <= 0
x329x239x1 - 2z329z239z1 <= 0
x329x300x2 - 2z329z300z2 <= 0
x171x174x1 - 2z171z174z1 <= 0
x171x162x1 - 1z171z162z1 <= 0
x171x162x2 - 1z171z162z2 <= 0
x171x151x1 - 2z171z151z1 <= 0
x171x270x2 - 1z171z270z2 <= 0
x171x23x2 - 2z171z23z2 <= 0
x171x161x2 - 1z171z161z2 <= 0
x171x237x1 - 2z171z237z1 <= 0
x171x105x2 - 2z171z105z2 <= 0
x171x312x1 - 1z171z312z1 <= 0
x171x77x1 - 1z171z77z1 <= 0
x171x119x2 - 1z171z119z2 <= 0
x171x2x1 - 1z171z2z1 <= 0
x171x169x1 - 1z171z169z1 <= 0
x171x169x2 - 1z171z169z2 <= 0
x171x211x2 - 1z171z211z2 <= 0
x171x6x1 - 1z171z6z1 <= 0
x171x96x1 - 2z171z96z1 <= 0
x171x239x1 - 2z171z239z1 <= 0
x171x300x2 - 2z171z300z2 <= 0
x256x162x2 - 1z256z162z2 <= 0
x256x270x2 - 1z256z270z2 <= 0
x256x270x3 - 1z256z270z3 <= 0
x256x23x2 - 2z256z23z2 <= 0
x256x161x2 - 1z256z161z2 <= 0
x256x161x3 - 1z256z161z3 <= 0
x256x105x2 - 2z256z105z2 <= 0
x256x312x3 - 1z256z312z3 <= 0
x256x77x3 - 1z256z77z3 <= 0
x256x119x2 - 1z256z119z2 <= 0
x256x119x3 - 1z256z119z3 <= 0
x256x2x3 - 1z256z2z3 <= 0
x256x169x2 - 1z256z169z2 <= 0
x256x211x2 - 1z256z211z2 <= 0
x256x211x3 - 1z256z211z3 <= 0
x256x6x3 - 1z256z6z3 <= 0
x256x300x2 - 2z256z300z2 <= 0
x166x312x1 - 1z166z312z1 <= 0
x166x77x1 - 1z166z77z1 <= 0
x166x2x1 - 1z166z2z1 <= 0
x166x169x1 - 1z166z169z1 <= 0
x166x6x1 - 1z166z6z1 <= 0
x166x96x1 - 2z166z96z1 <= 0
x166x239x1 - 2z166z239z1 <= 0
x30x162x1 - 1z30z162z1 <= 0
x30x151x1 - 2z30z151z1 <= 0
x30x237x1 - 2z30z237z1 <= 0
x30x312x1 - 1z30z312z1 <= 0
x30x77x1 - 1z30z77z1 <= 0
x30x2x1 - 1z30z2z1 <= 0
x30x169x1 - 1z30z169z1 <= 0
x30x6x1 - 1z30z6z1 <= 0
x30x96x1 - 2z30z96z1 <= 0
x30x239x1 - 2z30z239z1 <= 0
x204x162x2 - 1z204z162z2 <= 0
x204x270x2 - 1z204z270z2 <= 0
x204x270x3 - 1z204z270z3 <= 0
x204x23x2 - 2z204z23z2 <= 0
x204x161x2 - 1z204z161z2 <= 0
x204x161x3 - 1z204z161z3 <= 0
x204x105x2 - 2z204z105z2 <= 0
x204x312x3 - 1z204z312z3 <= 0
x204x77x3 - 1z204z77z3 <= 0
x204x119x2 - 1z204z119z2 <= 0
x204x119x3 - 1z204z119z3 <= 0
x204x2x3 - 1z204z2z3 <= 0
x204x169x2 - 1z204z169z2 <= 0
x204x211x2 - 1z204z211z2 <= 0
x204x211x3 - 1z204z211z3 <= 0
x204x6x3 - 1z204z6z3 <= 0
x204x300x2 - 2z204z300z2 <= 0
x146x162x2 - 1z146z162z2 <= 0
x146x270x2 - 1z146z270z2 <= 0
x146x23x2 - 2z146z23z2 <= 0
x146x161x2 - 1z146z161z2 <= 0
x146x105x2 - 2z146z105z2 <= 0
x146x119x2 - 1z146z119z2 <= 0
x146x169x2 - 1z146z169z2 <= 0
x146x211x2 - 1z146z211z2 <= 0
x146x300x2 - 2z146z300z2 <= 0
x73x162x2 - 1z73z162z2 <= 0
x73x270x2 - 1z73z270z2 <= 0
x73x23x2 - 2z73z23z2 <= 0
x73x161x2 - 1z73z161z2 <= 0
x73x105x2 - 2z73z105z2 <= 0
x73x119x2 - 1z73z119z2 <= 0
x73x169x2 - 1z73z169z2 <= 0
x73x211x2 - 1z73z211z2 <= 0
x73x300x2 - 2z73z300z2 <= 0
x285x162x2 - 1z285z162z2 <= 0
x285x270x2 - 1z285z270z2 <= 0
x285x23x2 - 2z285z23z2 <= 0
x285x161x2 - 1z285z161z2 <= 0
x285x105x2 - 2z285z105z2 <= 0
x285x119x2 - 1z285z119z2 <= 0
x285x169x2 - 1z285z169z2 <= 0
x285x211x2 - 1z285z211z2 <= 0
x285x300x2 - 2z285z300z2 <= 0
x263x174x1 - 2z263z174z1 <= 0
x263x162x1 - 1z263z162z1 <= 0
x263x151x1 - 2z263z151z1 <= 0
x263x237x1 - 2z263z237z1 <= 0
x263x312x1 - 1z263z312z1 <= 0
x263x77x1 - 1z263z77z1 <= 0
x263x2x1 - 1z263z2z1 <= 0
x263x169x1 - 1z263z169z1 <= 0
x263x6x1 - 1z263z6z1 <= 0
x263x96x1 - 2z263z96z1 <= 0
x263x239x1 - 2z263z239z1 <= 0
x86x174x1 - 2z86z174z1 <= 0
x86x162x1 - 1z86z162z1 <= 0
x86x151x1 - 2z86z151z1 <= 0
x86x270x3 - 1z86z270z3 <= 0
x86x161x3 - 1z86z161z3 <= 0
x86x237x1 - 2z86z237z1 <= 0
x86x312x1 - 1z86z312z1 <= 0
x86x312x3 - 1z86z312z3 <= 0
x86x77x1 - 1z86z77z1 <= 0
x86x77x3 - 1z86z77z3 <= 0
x86x119x3 - 1z86z119z3 <= 0
x86x2x1 - 1z86z2z1 <= 0
x86x2x3 - 1z86z2z3 <= 0
x86x169x1 - 1z86z169z1 <= 0
x86x211x3 - 1z86z211z3 <= 0
x86x6x1 - 1z86z6z1 <= 0
x86x6x3 - 1z86z6z3 <= 0
x86x96x1 - 2z86z96z1 <= 0
x86x239x1 - 2z86z239z1 <= 0
x200x162x2 - 1z200z162z2 <= 0
x200x270x2 - 1z200z270z2 <= 0
x200x23x2 - 2z200z23z2 <= 0
x200x161x2 - 1z200z161z2 <= 0
x200x105x2 - 2z200z105z2 <= 0
x200x119x2 - 1z200z119z2 <= 0
x200x169x2 - 1z200z169z2 <= 0
x200x211x2 - 1z200z211z2 <= 0
x200x300x2 - 2z200z300z2 <= 0
x124x270x3 - 1z124z270z3 <= 0
x124x161x3 - 1z124z161z3 <= 0
x124x312x3 - 1z124z312z3 <= 0
x124x77x3 - 1z124z77z3 <= 0
x124x119x3 - 1z124z119z3 <= 0
x124x2x3 - 1z124z2z3 <= 0
x124x211x3 - 1z124z211z3 <= 0
x124x6x3 - 1z124z6z3 <= 0
x251x162x2 - 1z251z162z2 <= 0
x251x270x2 - 1z251z270z2 <= 0
x251x23x2 - 2z251z23z2 <= 0
x251x161x2 - 1z251z161z2 <= 0
x251x105x2 - 2z251z105z2 <= 0
x251x119x2 - 1z251z119z2 <= 0
x251x169x2 - 1z251z169z2 <= 0
x251x211x2 - 1z251z211z2 <= 0
x251x300x2 - 2z251z300z2 <= 0
x174x162x1 - 1z174z162z1 <= 0
x174x151x1 - 2z174z151z1 <= 0
x174x237x1 - 2z174z237z1 <= 0
x174x312x1 - 1z174z312z1 <= 0
x174x77x1 - 1z174z77z1 <= 0
x174x2x1 - 1z174z2z1 <= 0
x174x169x1 - 1z174z169z1 <= 0
x174x6x1 - 1z174z6z1 <= 0
x174x96x1 - 2z174z96z1 <= 0
x174x239x1 - 2z174z239z1 <= 0
x174x0x1 <= 2
x162x151x1 - 2z162z151z1 <= 0
x162x270x2 - 1z162z270z2 <= 0
x162x23x2 - 2z162z23z2 <= 0
x162x161x2 - 1z162z161z2 <= 0
x162x237x1 - 2z162z237z1 <= 0
x162x105x2 - 2z162z105z2 <= 0
x162x312x1 - 1z162z312z1 <= 0
x162x77x1 - 1z162z77z1 <= 0
x162x119x2 - 1z162z119z2 <= 0
x162x2x1 - 1z162z2z1 <= 0
x162x169x1 - 1z162z169z1 <= 0
x162x169x2 - 1z162z169z2 <= 0
x162x211x2 - 1z162z211z2 <= 0
x162x6x1 - 1z162z6z1 <= 0
x162x96x1 - 2z162z96z1 <= 0
x162x239x1 - 2z162z239z1 <= 0
x162x300x2 - 2z162z300z2 <= 0
x162x0x1 <= 1
x162x0x2 <= 1
x151x77x1 - 1z151z77z1 <= 0
x151x2x1 - 1z151z2z1 <= 0
x151x169x1 - 1z151z169z1 <= 0
x151x6x1 - 1z151z6z1 <= 0
x151x96x1 - 2z151z96z1 <= 0
x151x239x1 - 2z151z239z1 <= 0
x151x0x1 <= 2
x270x23x2 - 2z270z23z2 <= 0
x270x105x2 - 2z270z105z2 <= 0
x270x77x3 - 1z270z77z3 <= 0
x270x119x2 - 1z270z119z2 <= 0
x270x119x3 - 1z270z119z3 <= 0
x270x2x3 - 1z270z2z3 <= 0
x270x169x2 - 1z270z169z2 <= 0
x270x211x2 - 1z270z211z2 <= 0
x270x211x3 - 1z270z211z3 <= 0
x270x6x3 - 1z270z6z3 <= 0
x270x300x2 - 2z270z300z2 <= 0
x270x0x2 <= 1
x270x0x3 <= 1
x23x119x2 - 1z23z119z2 <= 0
x23x169x2 - 1z23z169z2 <= 0
x23x211x2 - 1z23z211z2 <= 0
x23x300x2 - 2z23z300z2 <= 0
x23x0x2 <= 2
x161x119x2 - 1z161z119z2 <= 0
x161x119x3 - 1z161z119z3 <= 0
x161x169x2 - 1z161z169z2 <= 0
x161x211x2 - 1z161z211z2 <= 0
x161x211x3 - 1z161z211z3 <= 0
x161x6x3 - 1z161z6z3 <= 0
x161x0x2 <= 1
x161x0x3 <= 1
x237x2x1 - 1z237z2z1 <= 0
x237x6x1 - 1z237z6z1 <= 0
x237x96x1 - 2z237z96z1 <= 0
x237x239x1 - 2z237z239z1 <= 0
x237x0x1 <= 2
x105x119x2 - 1z105z119z2 <= 0
x105x169x2 - 1z105z169z2 <= 0
x105x211x2 - 1z105z211z2 <= 0
x105x300x2 - 2z105z300z2 <= 0
x105x0x2 <= 2
x312x77x1 - 1z312z77z1 <= 0
x312x77x3 - 1z312z77z3 <= 0
x312x119x3 - 1z312z119z3 <= 0
x312x169x1 - 1z312z169z1 <= 0
x312x211x3 - 1z312z211z3 <= 0
x312x6x1 - 1z312z6z1 <= 0
x312x6x3 - 1z312z6z3 <= 0
x312x96x1 - 2z312z96z1 <= 0
x312x239x1 - 2z312z239z1 <= 0
x312x0x1 <= 1
x312x0x3 <= 1
x77x119x3 - 1z77z119z3 <= 0
x77x211x3 - 1z77z211z3 <= 0
x77x6x1 - 1z77z6z1 <= 0
x77x6x3 - 1z77z6z3 <= 0
x77x96x1 - 2z77z96z1 <= 0
x77x239x1 - 2z77z239z1 <= 0
x77x0x1 <= 1
x77x0x3 <= 1
x119x211x2 - 1z119z211z2 <= 0
x119x211x3 - 1z119z211z3 <= 0
x119x6x3 - 1z119z6z3 <= 0
x119x0x2 <= 1
x119x0x3 <= 1
x2x239x1 - 2z2z239z1 <= 0
x2x0x1 <= 1
x2x0x3 <= 1
x169x6x1 - 1z169z6z1 <= 0
x169x0x1 <= 1
x169x0x2 <= 1
x211x0x2 <= 1
x211x0x3 <= 1
x6x0x1 <= 1
x6x0x3 <= 1
x96x0x1 <= 2
x239x0x1 <= 2
x300x0x2 <= 2

Bounds
s24 = 6.230605
s201 = 6.267691
s329 = 6.229520
s171 = 6.436375
s256 = 6.916929
s166 = 7.435447
s30 = 6.870613
s204 = 6.909011
s146 = 5.266640
s73 = 5.306100
s285 = 5.202080
s263 = 5.429750
s86 = 5.448240
s200 = 5.934240
s124 = 5.900000
s251 = 4.742330
6.530000 <= s174 <= 7.530000
7.680000 <= s162 <= 8.680000
7.870000 <= s151 <= 8.870000
7.880000 <= s270 <= 8.880000
7.900000 <= s23 <= 8.900000
7.900000 <= s161 <= 8.900000
7.900000 <= s237 <= 8.900000
7.910000 <= s105 <= 8.910000
7.910000 <= s312 <= 8.910000
7.960000 <= s77 <= 8.960000
7.980000 <= s119 <= 8.980000
7.990000 <= s2 <= 8.990000
7.990000 <= s169 <= 8.990000
8.060000 <= s211 <= 9.060000
8.070000 <= s6 <= 9.070000
8.070000 <= s96 <= 9.070000
8.080000 <= s239 <= 9.080000
8.080000 <= s300 <= 9.080000

General
x24x270x3 x24x161x3 x24x312x3 x24x77x3 x24x119x3 x24x2x3 x24x211x3 x24x6x3 
x201x270x3 x201x161x3 x201x312x3 x201x77x3 x201x119x3 x201x2x3 x201x211x3 x201x6x3 
x329x162x1 x329x162x2 x329x151x1 x329x270x2 x329x23x2 x329x161x2 x329x237x1 x329x105x2 x329x312x1 x329x77x1 x329x119x2 x329x2x1 x329x169x1 x329x169x2 x329x211x2 x329x6x1 x329x96x1 x329x239x1 x329x300x2 
x171x174x1 x171x162x1 x171x162x2 x171x151x1 x171x270x2 x171x23x2 x171x161x2 x171x237x1 x171x105x2 x171x312x1 x171x77x1 x171x119x2 x171x2x1 x171x169x1 x171x169x2 x171x211x2 x171x6x1 x171x96x1 x171x239x1 x171x300x2 
x256x162x2 x256x270x2 x256x270x3 x256x23x2 x256x161x2 x256x161x3 x256x105x2 x256x312x3 x256x77x3 x256x119x2 x256x119x3 x256x2x3 x256x169x2 x256x211x2 x256x211x3 x256x6x3 x256x300x2 
x166x312x1 x166x77x1 x166x2x1 x166x169x1 x166x6x1 x166x96x1 x166x239x1 
x30x162x1 x30x151x1 x30x237x1 x30x312x1 x30x77x1 x30x2x1 x30x169x1 x30x6x1 x30x96x1 x30x239x1 
x204x162x2 x204x270x2 x204x270x3 x204x23x2 x204x161x2 x204x161x3 x204x105x2 x204x312x3 x204x77x3 x204x119x2 x204x119x3 x204x2x3 x204x169x2 x204x211x2 x204x211x3 x204x6x3 x204x300x2 
x146x162x2 x146x270x2 x146x23x2 x146x161x2 x146x105x2 x146x119x2 x146x169x2 x146x211x2 x146x300x2 
x73x162x2 x73x270x2 x73x23x2 x73x161x2 x73x105x2 x73x119x2 x73x169x2 x73x211x2 x73x300x2 
x285x162x2 x285x270x2 x285x23x2 x285x161x2 x285x105x2 x285x119x2 x285x169x2 x285x211x2 x285x300x2 
x263x174x1 x263x162x1 x263x151x1 x263x237x1 x263x312x1 x263x77x1 x263x2x1 x263x169x1 x263x6x1 x263x96x1 x263x239x1 
x86x174x1 x86x162x1 x86x151x1 x86x270x3 x86x161x3 x86x237x1 x86x312x1 x86x312x3 x86x77x1 x86x77x3 x86x119x3 x86x2x1 x86x2x3 x86x169x1 x86x211x3 x86x6x1 x86x6x3 x86x96x1 x86x239x1 
x200x162x2 x200x270x2 x200x23x2 x200x161x2 x200x105x2 x200x119x2 x200x169x2 x200x211x2 x200x300x2 
x124x270x3 x124x161x3 x124x312x3 x124x77x3 x124x119x3 x124x2x3 x124x211x3 x124x6x3 
x251x162x2 x251x270x2 x251x23x2 x251x161x2 x251x105x2 x251x119x2 x251x169x2 x251x211x2 x251x300x2 
x174x162x1 x174x151x1 x174x237x1 x174x312x1 x174x77x1 x174x2x1 x174x169x1 x174x6x1 x174x96x1 x174x239x1 x174x0x1 
x162x151x1 x162x270x2 x162x23x2 x162x161x2 x162x237x1 x162x105x2 x162x312x1 x162x77x1 x162x119x2 x162x2x1 x162x169x1 x162x169x2 x162x211x2 x162x6x1 x162x96x1 x162x239x1 x162x300x2 x162x0x1 x162x0x2 
x151x77x1 x151x2x1 x151x169x1 x151x6x1 x151x96x1 x151x239x1 x151x0x1 
x270x23x2 x270x105x2 x270x77x3 x270x119x2 x270x119x3 x270x2x3 x270x169x2 x270x211x2 x270x211x3 x270x6x3 x270x300x2 x270x0x2 x270x0x3 
x23x119x2 x23x169x2 x23x211x2 x23x300x2 x23x0x2 
x161x119x2 x161x119x3 x161x169x2 x161x211x2 x161x211x3 x161x6x3 x161x0x2 x161x0x3 
x237x2x1 x237x6x1 x237x96x1 x237x239x1 x237x0x1 
x105x119x2 x105x169x2 x105x211x2 x105x300x2 x105x0x2 
x312x77x1 x312x77x3 x312x119x3 x312x169x1 x312x211x3 x312x6x1 x312x6x3 x312x96x1 x312x239x1 x312x0x1 x312x0x3 
x77x119x3 x77x211x3 x77x6x1 x77x6x3 x77x96x1 x77x239x1 x77x0x1 x77x0x3 
x119x211x2 x119x211x3 x119x6x3 x119x0x2 x119x0x3 
x2x239x1 x2x0x1 x2x0x3 
x169x6x1 x169x0x1 x169x0x2 
x211x0x2 x211x0x3 
x6x0x1 x6x0x3 
x96x0x1 
x239x0x1 
x300x0x2 

Binaries
y174 y162 y151 y270 y23 y161 y237 y105 y312 y77 y119 y2 y169 y211 y6 y96 y239 y300 
z24z270z3 z24z161z3 z24z312z3 z24z77z3 z24z119z3 z24z2z3 z24z211z3 z24z6z3 
z201z270z3 z201z161z3 z201z312z3 z201z77z3 z201z119z3 z201z2z3 z201z211z3 z201z6z3 
z329z162z1 z329z162z2 z329z151z1 z329z270z2 z329z23z2 z329z161z2 z329z237z1 z329z105z2 z329z312z1 z329z77z1 z329z119z2 z329z2z1 z329z169z1 z329z169z2 z329z211z2 z329z6z1 z329z96z1 z329z239z1 z329z300z2 
z171z174z1 z171z162z1 z171z162z2 z171z151z1 z171z270z2 z171z23z2 z171z161z2 z171z237z1 z171z105z2 z171z312z1 z171z77z1 z171z119z2 z171z2z1 z171z169z1 z171z169z2 z171z211z2 z171z6z1 z171z96z1 z171z239z1 z171z300z2 
z256z162z2 z256z270z2 z256z270z3 z256z23z2 z256z161z2 z256z161z3 z256z105z2 z256z312z3 z256z77z3 z256z119z2 z256z119z3 z256z2z3 z256z169z2 z256z211z2 z256z211z3 z256z6z3 z256z300z2 
z166z312z1 z166z77z1 z166z2z1 z166z169z1 z166z6z1 z166z96z1 z166z239z1 
z30z162z1 z30z151z1 z30z237z1 z30z312z1 z30z77z1 z30z2z1 z30z169z1 z30z6z1 z30z96z1 z30z239z1 
z204z162z2 z204z270z2 z204z270z3 z204z23z2 z204z161z2 z204z161z3 z204z105z2 z204z312z3 z204z77z3 z204z119z2 z204z119z3 z204z2z3 z204z169z2 z204z211z2 z204z211z3 z204z6z3 z204z300z2 
z146z162z2 z146z270z2 z146z23z2 z146z161z2 z146z105z2 z146z119z2 z146z169z2 z146z211z2 z146z300z2 
z73z162z2 z73z270z2 z73z23z2 z73z161z2 z73z105z2 z73z119z2 z73z169z2 z73z211z2 z73z300z2 
z285z162z2 z285z270z2 z285z23z2 z285z161z2 z285z105z2 z285z119z2 z285z169z2 z285z211z2 z285z300z2 
z263z174z1 z263z162z1 z263z151z1 z263z237z1 z263z312z1 z263z77z1 z263z2z1 z263z169z1 z263z6z1 z263z96z1 z263z239z1 
z86z174z1 z86z162z1 z86z151z1 z86z270z3 z86z161z3 z86z237z1 z86z312z1 z86z312z3 z86z77z1 z86z77z3 z86z119z3 z86z2z1 z86z2z3 z86z169z1 z86z211z3 z86z6z1 z86z6z3 z86z96z1 z86z239z1 
z200z162z2 z200z270z2 z200z23z2 z200z161z2 z200z105z2 z200z119z2 z200z169z2 z200z211z2 z200z300z2 
z124z270z3 z124z161z3 z124z312z3 z124z77z3 z124z119z3 z124z2z3 z124z211z3 z124z6z3 
z251z162z2 z251z270z2 z251z23z2 z251z161z2 z251z105z2 z251z119z2 z251z169z2 z251z211z2 z251z300z2 
z174z162z1 z174z151z1 z174z237z1 z174z312z1 z174z77z1 z174z2z1 z174z169z1 z174z6z1 z174z96z1 z174z239z1 
z162z151z1 z162z270z2 z162z23z2 z162z161z2 z162z237z1 z162z105z2 z162z312z1 z162z77z1 z162z119z2 z162z2z1 z162z169z1 z162z169z2 z162z211z2 z162z6z1 z162z96z1 z162z239z1 z162z300z2 
z151z77z1 z151z2z1 z151z169z1 z151z6z1 z151z96z1 z151z239z1 
z270z23z2 z270z105z2 z270z77z3 z270z119z2 z270z119z3 z270z2z3 z270z169z2 z270z211z2 z270z211z3 z270z6z3 z270z300z2 
z23z119z2 z23z169z2 z23z211z2 z23z300z2 
z161z119z2 z161z119z3 z161z169z2 z161z211z2 z161z211z3 z161z6z3 
z237z2z1 z237z6z1 z237z96z1 z237z239z1 
z105z119z2 z105z169z2 z105z211z2 z105z300z2 
z312z77z1 z312z77z3 z312z119z3 z312z169z1 z312z211z3 z312z6z1 z312z6z3 z312z96z1 z312z239z1 
z77z119z3 z77z211z3 z77z6z1 z77z6z3 z77z96z1 z77z239z1 
z119z211z2 z119z211z3 z119z6z3 
z2z239z1 
z169z6z1 






End